3342
[247, 248, 249, 250, 229, 228, 227, 226, 225, 224, 223, 222, 221, 218, 217, 214, 213, 210, 209, 206, 205, 204, 203, 202, 201, 199, 143, 142, 141, 146, 145, 140, 139, 138, 137, 136, 135, 267, 266, 134, 133, 269, 268, 132, 17, 16, 15, 270, 271, 272, 273, 274, 275, 276, 3, 278, 277, 2, 279, 1, 0, 4, 5, 6, 7, 8, 9, 10, 11, 12, 13, 14, 23, 22, 24, 21, 25, 26, 27, 28, 30, 29, 124, 123, 122, 121, 120, 119, 118, 156, 157, 158, 159, 174, 160, 161, 162, 163, 164, 165, 166, 167, 168, 100, 99, 98, 97, 92, 93, 94, 95, 96, 91, 90, 89, 88, 108, 107, 103, 109, 110, 113, 114, 116, 115, 85, 84, 83, 82, 87, 111, 112, 86, 81, 80, 79, 78, 77, 76, 74, 75, 73, 72, 71, 70, 69, 66, 67, 68, 65, 64, 63, 62, 58, 43, 44, 56, 57, 45, 46, 54, 55, 47, 48, 52, 53, 49, 50, 51, 61, 117, 60, 59, 42, 41, 40, 39, 38, 37, 36, 34, 35, 33, 32, 31, 104, 105, 106, 172, 173, 169, 170, 171, 102, 101, 125, 126, 127, 20, 19, 130, 129, 18, 131, 128, 153, 154, 152, 155, 151, 150, 177, 176, 175, 180, 179, 178, 181, 182, 183, 184, 186, 185, 187, 188, 189, 190, 191, 193, 196, 197, 198, 144, 200, 195, 194, 192, 149, 148, 147, 265, 264, 263, 262, 261, 260, 259, 258, 257, 256, 253, 252, 207, 208, 251, 254, 255, 211, 212, 215, 216, 219, 220, 242, 241, 240, 239, 238, 237, 230, 231, 245, 244, 232, 235, 233, 234, 236, 243, 246]
